Computing Time Comparison - W=90

Parameters:
W = 90
xi = 0.9
K = 5
Duplications = {8.0: 5, 9.0: 5, 10.0: 22, 11.0: 5, 12.0: 20,
                13.0: 15, 14.0: 5, 15.0: 5, 16.0: 5, 17.0: 20,
                18.0: 22, 19.0: 5, 20.0: 15, 21.0: 10}
s = 5
r = 10
Starting Positions = 17.0, 18.0, 19.0, 20.0, 21.0

Gurobi Log Excerpt:
Academic license - for non-commercial use only - expires 2021-07-06
Using license file /Users/ellajohnsen/gurobi.lic
Changed value of parameter TimeLimit to 5400.0
   Prev: inf  Min: 0.0  Max: inf  Default: inf
Gurobi Optimizer version 9.1.1 build v9.1.1rc0 (mac64)
Thread count: 8 physical cores, 8 logical processors, using up to 8 threads
Optimize a model with 9570 rows, 8254 columns and 108202 nonzeros
Model fingerprint: 0x523e7622
Variable types: 161 continuous, 8093 integer (8093 binary)
Coefficient statistics:
  Matrix range     [1e+00, 3e+02]
  Objective range  [3e+02, 4e+07]
  Bounds range     [1e+00, 9e+01]
  RHS range        [1e+00, 9e+01]
Found heuristic solution: objective 2.962242e+09
Presolve removed 7837 rows and 6756 columns
Presolve time: 0.41s
Presolved: 1733 rows, 1498 columns, 24685 nonzeros
Variable types: 93 continuous, 1405 integer (1404 binary)

Root relaxation: objective 1.945378e+09, 1102 iterations, 0.03 seconds

    Nodes    |    Current Node    |     Objective Bounds      |     Work
 Expl Unexpl |  Obj  Depth IntInf | Incumbent    BestBd   Gap | It/Node Time

     0     0 2.0338e+09    0  197 2.9622e+09 2.0338e+09  31.3%     -    0s
H    0     0                    2.918031e+09 2.0338e+09  30.3%     -    0s
H    0     0                    2.873818e+09 2.0338e+09  29.2%     -    0s
     0     0 2.0338e+09    0  182 2.8738e+09 2.0338e+09  29.2%     -    0s
     0     0 2.0338e+09    0  151 2.8738e+09 2.0338e+09  29.2%     -    1s
H    0     0                    2.873816e+09 2.0338e+09  29.2%     -    1s
H    0     0                    2.873816e+09 2.0338e+09  29.2%     -    1s
H    0     0                    2.829604e+09 2.0338e+09  28.1%     -    1s
     0     0 2.0338e+09    0  193 2.8296e+09 2.0338e+09  28.1%     -    1s
H    0     0                    2.785393e+09 2.0338e+09  27.0%     -    1s
     0     0 2.0378e+09    0  169 2.7854e+09 2.0378e+09  26.8%     -    1s
     0     0 2.0378e+09    0  170 2.7854e+09 2.0378e+09  26.8%     -    1s
     0     0 2.0462e+09    0  173 2.7854e+09 2.0462e+09  26.5%     -    1s
     0     0 2.0930e+09    0  150 2.7854e+09 2.0930e+09  24.9%     -    1s
     0     0 2.0935e+09    0  180 2.7854e+09 2.0935e+09  24.8%     -    1s
     0     0 2.0938e+09    0  182 2.7854e+09 2.0938e+09  24.8%     -    1s
     0     0 2.0939e+09    0  184 2.7854e+09 2.0939e+09  24.8%     -    1s
     0     0 2.0939e+09    0  185 2.7854e+09 2.0939e+09  24.8%     -    1s
     0     0 2.0961e+09    0  175 2.7854e+09 2.0961e+09  24.7%     -    1s
     0     0 2.0961e+09    0  139 2.7854e+09 2.0961e+09  24.7%     -    1s
H    0     0                    2.741182e+09 2.0961e+09  23.5%     -    1s
     0     0 2.0987e+09    0  154 2.7412e+09 2.0987e+09  23.4%     -    1s
H    0     0                    2.741180e+09 2.0987e+09  23.4%     -    1s
H    0     0                    2.696970e+09 2.0987e+09  22.2%     -    1s
     0     0 2.1020e+09    0  147 2.6970e+09 2.1020e+09  22.1%     -    1s
     0     0 2.1022e+09    0  159 2.6970e+09 2.1022e+09  22.1%     -    1s
     0     0 2.1022e+09    0  156 2.6970e+09 2.1022e+09  22.1%     -    1s
H    0     0                    2.652764e+09 2.1022e+09  20.8%     -    1s
     0     0 2.1080e+09    0  130 2.6528e+09 2.1080e+09  20.5%     -    1s
H    0     0                    2.608553e+09 2.1080e+09  19.2%     -    1s
     0     0 2.1083e+09    0  141 2.6086e+09 2.1083e+09  19.2%     -    1s
     0     0 2.1083e+09    0  147 2.6086e+09 2.1083e+09  19.2%     -    1s
     0     0 2.1083e+09    0  148 2.6086e+09 2.1083e+09  19.2%     -    1s
     0     0 2.1355e+09    0  169 2.6086e+09 2.1355e+09  18.1%     -    1s
     0     0 2.1443e+09    0  149 2.6086e+09 2.1443e+09  17.8%     -    1s
     0     0 2.1443e+09    0  151 2.6086e+09 2.1443e+09  17.8%     -    1s
H    0     0                    2.608552e+09 2.1443e+09  17.8%     -    1s
     0     0 2.1456e+09    0  155 2.6086e+09 2.1456e+09  17.7%     -    1s
     0     0 2.1486e+09    0  145 2.6086e+09 2.1486e+09  17.6%     -    1s
     0     0 2.1489e+09    0  144 2.6086e+09 2.1489e+09  17.6%     -    1s
     0     0 2.1489e+09    0  144 2.6086e+09 2.1489e+09  17.6%     -    1s
     0     0 2.1664e+09    0  139 2.6086e+09 2.1664e+09  16.9%     -    1s
     0     0 2.1664e+09    0  143 2.6086e+09 2.1664e+09  16.9%     -    1s
     0     0 2.1664e+09    0  150 2.6086e+09 2.1664e+09  16.9%     -    1s
H    0     0                    2.564340e+09 2.1664e+09  15.5%     -    1s
     0     0 2.1664e+09    0  132 2.5643e+09 2.1664e+09  15.5%     -    1s
     0     0 2.1664e+09    0  115 2.5643e+09 2.1664e+09  15.5%     -    1s
     0     0 2.1664e+09    0  101 2.5643e+09 2.1664e+09  15.5%     -    1s
     0     0 2.1664e+09    0  128 2.5643e+09 2.1664e+09  15.5%     -    2s
     0     0 2.1664e+09    0  116 2.5643e+09 2.1664e+09  15.5%     -    2s
     0     0 2.1664e+09    0  116 2.5643e+09 2.1664e+09  15.5%     -    2s
     0     0 2.1664e+09    0   81 2.5643e+09 2.1664e+09  15.5%     -    2s
     0     0 2.1664e+09    0  120 2.5643e+09 2.1664e+09  15.5%     -    2s
     0     0 2.1664e+09    0  121 2.5643e+09 2.1664e+09  15.5%     -    2s
     0     0 2.1664e+09    0  107 2.5643e+09 2.1664e+09  15.5%     -    2s
     0     0 2.1664e+09    0  118 2.5643e+09 2.1664e+09  15.5%     -    2s
     0     0 2.1664e+09    0  123 2.5643e+09 2.1664e+09  15.5%     -    2s
     0     0 2.1664e+09    0  121 2.5643e+09 2.1664e+09  15.5%     -    2s
     0     0 2.1664e+09    0   98 2.5643e+09 2.1664e+09  15.5%     -    2s
     0     0 2.1738e+09    0   73 2.5643e+09 2.1738e+09  15.2%     -    2s
     0     0 2.2549e+09    0   41 2.5643e+09 2.2549e+09  12.1%     -    2s
     0     0 2.2549e+09    0   35 2.5643e+09 2.2549e+09  12.1%     -    2s
     0     0 2.2991e+09    0   71 2.5643e+09 2.2991e+09  10.3%     -    2s
     0     0 2.2991e+09    0   76 2.5643e+09 2.2991e+09  10.3%     -    2s
     0     0 2.2991e+09    0   57 2.5643e+09 2.2991e+09  10.3%     -    2s
     0     0 2.2991e+09    0   35 2.5643e+09 2.2991e+09  10.3%     -    2s
     0     0 2.2991e+09    0   39 2.5643e+09 2.2991e+09  10.3%     -    2s
     0     0 2.2991e+09    0   26 2.5643e+09 2.2991e+09  10.3%     -    2s
H    0     0                    2.520127e+09 2.2991e+09  8.77%     -    2s
     0     0 2.2991e+09    0   32 2.5201e+09 2.2991e+09  8.77%     -    2s
     0     0 2.2991e+09    0   39 2.5201e+09 2.2991e+09  8.77%     -    2s
     0     0 2.2991e+09    0   29 2.5201e+09 2.2991e+09  8.77%     -    2s
     0     0 2.2991e+09    0   29 2.5201e+09 2.2991e+09  8.77%     -    2s
     0     1 2.2991e+09    0   26 2.5201e+09 2.2991e+09  8.77%     -    2s
H  284   199                    2.520127e+09 2.2991e+09  8.77%  20.6    2s
H  335   261                    2.475909e+09 2.2991e+09  7.14%  19.5    3s
  6893  1271 2.3883e+09   35   60 2.4759e+09 2.3547e+09  4.90%  24.8    5s

Cutting planes:
  Learned: 3
  Gomory: 6
  Cover: 13
  Implied bound: 3
  Projected implied bound: 3
  Clique: 11
  MIR: 14
  StrongCG: 3
  Flow cover: 14
  GUB cover: 10
  Zero half: 7
  RLT: 7
  Relax-and-lift: 9

Explored 8002 nodes (241704 simplex iterations) in 5.48 seconds
Thread count was 8 (of 8 available processors)

Solution count 10: 2.47591e+09 2.52013e+09 2.52013e+09 ... 2.74118e+09

Optimal solution found (tolerance 1.00e-04)
Best objective 2.475908978511e+09, best bound 2.475908978511e+09, gap 0.0000%
